Traveling Salesman Problem/TSP_generados/Aleatorio1621103487_15.tsp
NAME: Aleatorio1621103487_15.tsp
COMMENT: Randomly generated scenario
TYPE: TSP
DIMENSION: 15
EDGE_WEIGHT_TYPE: ATT
NODE_COORD_SECTION
1 29.17 22.07
2 29.41 31.04
3 12.26 24.25
4 25.11 31.57
5 29.78 19.08
6 23.48 43.42
7 25.93 20.59
8 26.39 34.07
9 35.04 13.67
10 43.78 20.07
11 22.72 27.56
12 28.0 46.85
13 1.7 46.53
14 44.51 30.15
15 48.05 5.24
