Traveling Salesman Problem/TSP_generados/Aleatorio1621103487_15.opt.tour
NAME: Aleatorio1621103487_15.opt.tour
COMMENT: Optimal solution for Aleatorio1621103487_15 (161.32464432401477)
TYPE: TOUR
DIMENSION: 15
TOUR_SECTION
1 5 9 15 10 14 2 4 8 12 6 13 3 11 7
-1
EOF
